0 2506 
1 2502 
2 2498 
3 2492 
4 2488 
5 2482 
6 2434 
7 2432 
8 2428 
9 2422 
10 2420 
11 2420 
12 2418 
13 2412 
14 2406 
15 2402 
16 2398 
17 2390 
18 2382 
19 2362 
20 2356 
21 2348 
22 2344 
23 2342 
24 2328 
25 2320 
26 2318 
27 2314 
28 2300 
29 2290 
30 2270 
31 2262 
32 2260 
33 2258 
34 2256 
35 2256 
36 2248 
37 2226 
38 2218 
39 2214 
40 2202 
41 2190 
42 2152 
43 2134 
44 2132 
45 2124 
46 2108 
47 2108 
48 2104 
49 2100 
50 2088 
51 2084 
52 2080 
53 2060 
54 2052 
55 2050 
56 2042 
57 2036 
58 2024 
59 2006 
60 1982 
61 1968 
62 1968 

